<number of tasks>
20


<number of equipment>
5


<cycle time>
1000


<investment costs>
1,23203
2,28728
3,13093
4,13602
5,18401


<task times>
1,-1,161,-1,367,279
2,-1,266,390,-1,414
3,-1,90,-1,333,280
4,-1,94,-1,320,172
5,-1,98,-1,347,289
6,-1,235,365,-1,293
7,-1,207,361,-1,284
8,-1,173,-1,354,284
9,-1,92,-1,315,201
10,187,-1,223,-1,-1
11,-1,94,-1,337,225
12,-1,75,312,-1,281
13,-1,191,-1,333,288
14,-1,144,371,-1,296
15,387,-1,384,-1,-1
16,-1,161,348,-1,241
17,186,-1,278,-1,-1
18,-1,121,263,-1,223
19,-1,101,-1,357,289
20,-1,123,-1,325,210


<precedence relations>
1,4
2,5
2,6
3,5
3,6
4,7
5,8
5,9
6,8
6,9
7,11
8,10
8,12
8,13
8,16
9,13
9,16
10,14
11,16
12,15
13,17
13,19
14,18
15,18
16,19
17,18
17,20


<task types>
1,3
2,2
3,3
4,3
5,3
6,2
7,2
8,3
9,3
10,1
11,3
12,2
13,3
14,2
15,1
16,2
17,1
18,2
19,3
20,3


<line depot>
1,0
2,1
3,2
4,2
5,3


<processing costs>
1,7200
2,14400
3,14400
4,7200
5,14400


<saving costs>
1,2320
2,2872
3,1309
4,1360
5,1840


<end>
